n_res = 5;
rcap = [28, 34, 24, 107, 110];
rtype = [1, 1, 1, 2, 2];
n_tasks = 16;
modes = [ {1, 2, 3}, {4, 5, 6}, {7, 8, 9}, {10, 11, 12}, {13, 14, 15}, {16, 17, 18}, {19, 20, 21}, {22, 23, 24}, {25, 26, 27}, {28, 29, 30}, {31, 32, 33}, {34, 35, 36}, {37, 38, 39}, {40, 41, 42}, {43, 44, 45}, {46, 47, 48} ];
succ = [ {4, 7, 16}, {4, 10, 16}, {5, 6, 16}, {15}, {11, 14}, {8, 9}, {10, 13}, {10, 13}, {11, 12, 13}, {11, 12}, {15}, {14}, {14, 15}, {}, {}, {} ];
n_opt = 48;
dur = [6, 8, 10, 1, 3, 6, 1, 2, 4, 7, 7, 8, 1, 6, 9, 1, 6, 6, 2, 4, 8, 1, 6, 8, 1, 5, 10, 1, 1, 5, 6, 7, 9, 5, 7, 9, 3, 5, 5, 2, 6, 6, 6, 9, 10, 2, 7, 7];
rreq = [|  0,  0,  6,  0,  4,  1,  0,  3,  0,  9,  0,  9,  6,  0,  5,  6,  0,  6,  0, 10,  0,  0,  0,  6,  0,  3,  0,  5,  4,  0,  0,  2,  0,  0,  6,  5,  7,  0,  7,  4,  1,  0,  0,  3,  2,  3,  3,  0
        |  0,  0,  0,  0,  0,  0,  7,  0,  0, 10, 10,  0,  6,  6,  0,  9,  0,  0,  0,  0,  7,  0,  7,  0,  0,  0,  0,  0,  0,  6, 10, 10,  0,  5,  0,  0,  0,  6,  0,  3,  0,  2,  0,  0,  0, 10, 10,  0
        |  6,  5,  0,  6,  0,  5,  0,  0,  2,  0,  0,  0, 10,  8,  8,  0,  8,  0,  6,  1,  0,  8,  3,  0,  8,  6,  6, 10, 10,  9, 10,  0, 10,  9,  6,  4,  0,  3,  5,  0, 10,  0,  5,  0,  0,  9,  0,  6
        |  5,  5,  4,  8,  7,  3,  6,  4,  4,  6,  7,  6,  8,  8,  5, 10, 10, 10,  6,  6,  5,  2,  2,  1,  7,  6,  6,  8,  8,  8,  8,  6,  6,  5,  4,  3,  7,  4,  5,  8,  6,  3, 10,  9,  9,  2,  1,  1
        |  3,  3,  2, 10,  9,  9,  4,  2,  2, 10,  9,  7,  5,  4,  2, 10,  9,  9,  7,  6,  4,  5,  5,  5,  4,  4,  2,  6,  7,  6,  8,  8,  7,  5,  5,  3, 10,  9, 10,  9,  9,  9,  9,  9,  8,  4,  4,  4 |];
